; PUSH cw_3 SWAP2 ADD SWAP1 => ADD PUSH cw_3
(set-option :produce-proofs true)
; 
(set-info :status unknown)
(declare-fun storage_t ((_ BitVec 256) (_ BitVec 256) (_ BitVec 256) Int (_ BitVec 256)) (_ BitVec 256))
(declare-fun w_3 () (_ BitVec 256))
(declare-fun storage_s ((_ BitVec 256) (_ BitVec 256) (_ BitVec 256) Int (_ BitVec 256)) (_ BitVec 256))
(declare-fun exc_halt_t (Int) Bool)
(declare-fun exc_halt_s (Int) Bool)
(declare-fun sc_t (Int) (_ BitVec 6))
(declare-fun stack_t ((_ BitVec 256) (_ BitVec 256) (_ BitVec 256) Int (_ BitVec 6)) (_ BitVec 256))
(declare-fun stack_s ((_ BitVec 256) (_ BitVec 256) (_ BitVec 256) Int (_ BitVec 6)) (_ BitVec 256))
(declare-fun sc_s (Int) (_ BitVec 6))
(declare-fun used_gas_t ((_ BitVec 256) (_ BitVec 256) (_ BitVec 256) Int) Int)
(declare-fun used_gas_s ((_ BitVec 256) (_ BitVec 256) (_ BitVec 256) Int) Int)
(assert
 (exists ((x_0 (_ BitVec 256)) (x_1 (_ BitVec 256)) )(let (($x86 (forall ((w (_ BitVec 256)) )(let ((?x523 (storage_t x_0 x_1 w_3 2 w)))
 (let ((?x536 (storage_s x_0 x_1 w_3 4 w)))
 (= ?x536 ?x523))))
 ))
 (let (($x903 (exc_halt_t 2)))
 (let (($x64 (exc_halt_s 4)))
 (let (($x3201 (= $x64 $x903)))
 (let (($x1185 (forall ((n (_ BitVec 6)) )(let ((?x4056 (sc_t 2)))
 (let (($x9398 (bvsle ?x4056 n)))
 (let ((?x89 (stack_t x_0 x_1 w_3 2 n)))
 (let ((?x90 (stack_s x_0 x_1 w_3 4 n)))
 (let (($x92 (= ?x90 ?x89)))
 (or $x92 $x9398)))))))
 ))
 (let ((?x4056 (sc_t 2)))
 (let ((?x4305 (sc_s 4)))
 (let (($x551 (= ?x4305 ?x4056)))
 (let ((?x46 (used_gas_t x_0 x_1 w_3 0)))
 (let ((?x81 (used_gas_s x_0 x_1 w_3 0)))
 (let (($x1330 (= ?x81 ?x46)))
 (let (($x1366 (forall ((w (_ BitVec 256)) )(let ((?x80 (storage_t x_0 x_1 w_3 0 w)))
 (let ((?x1348 (storage_s x_0 x_1 w_3 0 w)))
 (= ?x1348 ?x80))))
 ))
 (let (($x56 (exc_halt_t 0)))
 (let (($x57 (exc_halt_s 0)))
 (let (($x58 (= $x57 $x56)))
 (let (($x1234 (forall ((n (_ BitVec 6)) )(let ((?x63 (sc_t 0)))
 (let (($x3168 (bvsle ?x63 n)))
 (let ((?x84 (stack_t x_0 x_1 w_3 0 n)))
 (let ((?x98 (stack_s x_0 x_1 w_3 0 n)))
 (let (($x1435 (= ?x98 ?x84)))
 (or $x1435 $x3168)))))))
 ))
 (let ((?x63 (sc_t 0)))
 (let ((?x72 (sc_s 0)))
 (let (($x73 (= ?x72 ?x63)))
 (let (($x1920 (exc_halt_t 1)))
 (let (($x9375 (or $x1920 (not (= ((_ extract 6 6) (bvadd (_ bv1 7) (concat (_ bv0 1) (sc_t 1)))) (_ bv0 1))))))
 (let (($x9136 (= $x903 $x9375)))
 (let (($x715 (forall ((w (_ BitVec 256)) )(let ((?x714 (storage_t x_0 x_1 w_3 1 w)))
 (let ((?x523 (storage_t x_0 x_1 w_3 2 w)))
 (= ?x523 ?x714))))
 ))
 (let (($x1035 (forall ((n (_ BitVec 6)) )(let ((?x4023 (sc_t 1)))
 (let (($x9379 (bvsle ?x4023 n)))
 (let ((?x706 (stack_t x_0 x_1 w_3 1 n)))
 (let ((?x89 (stack_t x_0 x_1 w_3 2 n)))
 (or (= ?x89 ?x706) $x9379))))))
 ))
 (let (($x9397 (= ?x4056 (bvadd (_ bv1 6) (sc_t 1)))))
 (let (($x1144 (= (used_gas_t x_0 x_1 w_3 2) (+ 3 (used_gas_t x_0 x_1 w_3 1)))))
 (let (($x1143 (forall ((w (_ BitVec 256)) )(let ((?x80 (storage_t x_0 x_1 w_3 0 w)))
 (let ((?x714 (storage_t x_0 x_1 w_3 1 w)))
 (= ?x714 ?x80))))
 ))
 (let (($x1116 (forall ((n (_ BitVec 6)) )(let ((?x63 (sc_t 0)))
 (let ((?x5634 (bvadd (_ bv62 6) ?x63)))
 (let (($x5611 (bvsle ?x5634 n)))
 (let ((?x84 (stack_t x_0 x_1 w_3 0 n)))
 (let ((?x706 (stack_t x_0 x_1 w_3 1 n)))
 (or (= ?x706 ?x84) $x5611)))))))
 ))
 (let ((?x8804 (bvadd (_ bv63 6) ?x63)))
 (let ((?x4023 (sc_t 1)))
 (let (($x7401 (= ?x4023 ?x8804)))
 (let ((?x1099 (bvadd (stack_t x_0 x_1 w_3 0 ?x8804) (stack_t x_0 x_1 w_3 0 (bvadd (_ bv62 6) ?x63)))))
 (let (($x5482 (= $x64 (or (exc_halt_s 3) (not (bvsle (_ bv0 6) (bvadd (_ bv62 6) (sc_s 3))))))))
 (let (($x1059 (forall ((w (_ BitVec 256)) )(let ((?x1571 (storage_s x_0 x_1 w_3 3 w)))
 (let ((?x536 (storage_s x_0 x_1 w_3 4 w)))
 (= ?x536 ?x1571))))
 ))
 (let (($x1051 (forall ((n (_ BitVec 6)) )(let ((?x275 (sc_s 3)))
 (let ((?x8073 (bvadd (_ bv62 6) ?x275)))
 (let (($x8082 (bvsle ?x8073 n)))
 (let ((?x932 (stack_s x_0 x_1 w_3 3 n)))
 (let ((?x90 (stack_s x_0 x_1 w_3 4 n)))
 (or (= ?x90 ?x932) $x8082)))))))
 ))
 (let ((?x275 (sc_s 3)))
 (let (($x7720 (= ?x4305 ?x275)))
 (let (($x730 (= (used_gas_s x_0 x_1 w_3 4) (+ 3 (used_gas_s x_0 x_1 w_3 3)))))
 (let ((?x8728 (bvadd (_ bv63 6) ?x275)))
 (let ((?x790 (stack_s x_0 x_1 w_3 3 ?x8728)))
 (let (($x1012 (= (stack_s x_0 x_1 w_3 4 (bvadd (_ bv63 6) ?x4305)) (stack_s x_0 x_1 w_3 3 (bvadd (_ bv62 6) ?x275)))))
 (let (($x292 (exc_halt_s 3)))
 (let (($x6892 (= $x292 (or (exc_halt_s 2) (not (bvsle (_ bv0 6) (bvadd (_ bv62 6) (sc_s 2))))))))
 (let (($x1016 (forall ((w (_ BitVec 256)) )(let ((?x567 (storage_s x_0 x_1 w_3 2 w)))
 (let ((?x1571 (storage_s x_0 x_1 w_3 3 w)))
 (= ?x1571 ?x567))))
 ))
 (let (($x1350 (forall ((n (_ BitVec 6)) )(let ((?x218 (sc_s 2)))
 (let ((?x8738 (bvadd (_ bv62 6) ?x218)))
 (let (($x6881 (bvsle ?x8738 n)))
 (let ((?x529 (stack_s x_0 x_1 w_3 2 n)))
 (let ((?x932 (stack_s x_0 x_1 w_3 3 n)))
 (or (= ?x932 ?x529) $x6881)))))))
 ))
 (let ((?x218 (sc_s 2)))
 (let ((?x9500 (bvadd (_ bv63 6) ?x218)))
 (let (($x8760 (= ?x275 ?x9500)))
 (let ((?x907 (used_gas_s x_0 x_1 w_3 3)))
 (let ((?x8738 (bvadd (_ bv62 6) ?x218)))
 (let ((?x1176 (stack_s x_0 x_1 w_3 2 ?x8738)))
 (let ((?x758 (stack_s x_0 x_1 w_3 2 ?x9500)))
 (let (($x247 (exc_halt_s 2)))
 (let (($x8757 (= $x247 (or (exc_halt_s 1) (not (bvsle (_ bv0 6) (bvadd (_ bv61 6) (sc_s 1))))))))
 (let (($x1326 (forall ((w (_ BitVec 256)) )(let ((?x867 (storage_s x_0 x_1 w_3 1 w)))
 (let ((?x567 (storage_s x_0 x_1 w_3 2 w)))
 (= ?x567 ?x867))))
 ))
 (let (($x732 (forall ((n (_ BitVec 6)) )(let ((?x154 (sc_s 1)))
 (let ((?x8744 (bvadd (_ bv61 6) ?x154)))
 (let (($x7812 (bvsle ?x8744 n)))
 (let ((?x862 (stack_s x_0 x_1 w_3 1 n)))
 (let ((?x529 (stack_s x_0 x_1 w_3 2 n)))
 (or (= ?x529 ?x862) $x7812)))))))
 ))
 (let ((?x154 (sc_s 1)))
 (let (($x9488 (= ?x218 ?x154)))
 (let ((?x876 (used_gas_s x_0 x_1 w_3 2)))
 (let (($x724 (= (stack_s x_0 x_1 w_3 2 (bvadd (_ bv61 6) ?x218)) (stack_s x_0 x_1 w_3 1 (bvadd (_ bv63 6) ?x154)))))
 (let (($x189 (exc_halt_s 1)))
 (let (($x9504 (= $x189 (or $x57 (not (= ((_ extract 6 6) (bvadd (_ bv1 7) (concat (_ bv0 1) ?x72))) (_ bv0 1)))))))
 (let (($x673 (forall ((w (_ BitVec 256)) )(let ((?x1348 (storage_s x_0 x_1 w_3 0 w)))
 (let ((?x867 (storage_s x_0 x_1 w_3 1 w)))
 (= ?x867 ?x1348))))
 ))
 (let (($x759 (forall ((n (_ BitVec 6)) )(let ((?x72 (sc_s 0)))
 (let (($x9266 (bvsle ?x72 n)))
 (let ((?x98 (stack_s x_0 x_1 w_3 0 n)))
 (let ((?x862 (stack_s x_0 x_1 w_3 1 n)))
 (or (= ?x862 ?x98) $x9266))))))
 ))
 (let (($x8922 (= ?x154 (bvadd (_ bv1 6) ?x72))))
 (let (($x828 (forall ((w (_ BitVec 256)) )(let ((?x1348 (storage_s x_0 x_1 w_3 0 w)))
 (= ?x1348 (_ bv0 256))))
 ))
 (let (($x634 (= ?x81 0)))
 (let (($x5037 (not $x57)))
 (let (($x652 (= (stack_s x_0 x_1 w_3 0 (_ bv1 6)) x_1)))
 (let (($x812 (= (stack_s x_0 x_1 w_3 0 (_ bv0 6)) x_0)))
 (let (($x8956 (= ?x72 (_ bv2 6))))
 (and $x8956 $x812 $x652 $x5037 $x634 $x828 (= (stack_s x_0 x_1 w_3 1 ?x72) w_3) (= (used_gas_s x_0 x_1 w_3 1) (+ 3 ?x81)) $x8922 $x759 $x673 $x9504 (= ?x758 (stack_s x_0 x_1 w_3 1 (bvadd (_ bv61 6) ?x154))) $x724 (= ?x1176 (stack_s x_0 x_1 w_3 1 (bvadd (_ bv62 6) ?x154))) (= ?x876 (+ 3 (used_gas_s x_0 x_1 w_3 1))) $x9488 $x732 $x1326 $x8757 (= ?x790 (bvadd ?x758 ?x1176)) (= ?x907 (+ 3 ?x876)) $x8760 $x1350 $x1016 $x6892 $x1012 (= (stack_s x_0 x_1 w_3 4 (bvadd (_ bv62 6) ?x4305)) ?x790) $x730 $x7720 $x1051 $x1059 $x5482 (= (stack_t x_0 x_1 w_3 1 (bvadd (_ bv63 6) ?x4023)) ?x1099) (= (used_gas_t x_0 x_1 w_3 1) (+ 3 ?x46)) $x7401 $x1116 $x1143 (= $x1920 (or $x56 (not (bvsle (_ bv0 6) (bvadd (_ bv62 6) ?x63))))) (= (stack_t x_0 x_1 w_3 2 ?x4023) w_3) $x1144 $x9397 $x1035 $x715 $x9136 $x73 $x1234 $x58 $x1366 $x1330 (not (and $x551 $x1185 $x3201 $x86)))))))))))))))))))))))))))))))))))))))))))))))))))))))))))))))))))))))))))
 )
(check-sat)
(get-proof)
